NAME : in_house_7_23
TYPE : TSP
DIMENSION : 7
EDGE_WEIGHT_TYPE : EXPLICIT
EDGE_WEIGHT_FORMAT : UPPER_ROW
COMMENT : INVERSION_SHIFT=6
EDGE_WEIGHT_SECTION
48
49
4
35
48
33
14
27
28
10
37
7
33
23
11
5
16
34
19
13
37
